<number of tasks>
50

<cycle time>
1000

<order strength>
0.199


<task times>
1 603
2 641
3 465
4 384
5 399
6 512
7 536
8 562
9 424
10 456
11 582
12 520
13 484
14 555
15 470
16 675
17 471
18 582
19 439
20 246
21 574
22 560
23 467
24 358
25 576
26 480
27 247
28 800
29 340
30 479
31 567
32 471
33 747
34 430
35 646
36 533
37 613
38 569
39 432
40 407
41 554
42 533
43 712
44 436
45 361
46 447
47 460
48 514
49 434
50 484

<precedence relations>
1,15
2,8
2,10
2,12
2,14
3,11
3,14
4,17
5,37
5,48
6,9
6,13
7,10
7,43
8,16
9,19
10,16
12,17
13,18
14,18
15,20
15,31
16,23
16,29
16,47
17,42
18,26
19,22
19,25
19,27
20,21
20,24
20,28
23,46
25,34
26,30
26,33
26,35
27,31
27,32
28,36
28,37
29,38
30,40
31,39
32,38
32,41
36,49
37,42
38,46
40,45
41,43
41,44
42,47
43,49
45,48
46,50
47,49

<end>
